Route #1: 1 41 4 32 56 11 18 47 1
Route #2: 1 6 48 37 22 42 30 54 5 50 1
Route #3: 1 7 33 57 23 51 31 1
Route #4: 1 21 43 8 38 3 14 45 20 1
Route #5: 1 9 16 26 52 40 27 15 55 1
Route #6: 1 35 12 24 17 39 1
Route #7: 1 29 28 19 10 25 53 1
Route #8: 1 2 44 46 49 13 1
Route #9: 1 36 34 1
cost 1799.4617916362643
